
  14    0


   0   8 2 3 4 5 10 11 12 13 
   8   2 9 7 
   6   2 8 7 
  10   1 6 
   3   1 6 
   4   1 14
   5   1 14
   1   1 14
   3   1 14
   1   1 14
   5   1 14
   4   1 14
   4   1 14
   0   0 
